5989.0 330097.0 
6059.0 318504.0 
6052.0 318627.0 
6078.0 318179.0 
6157.0 317134.0 
6002.0 326653.0 
5996.0 327109.0 
6017.0 318890.0 
5991.0 328045.0 
5968.0 331475.0 
6135.0 318171.0 
6007.0 323383.0 
